25
13
23 11 2 19 16 21 6 17 9 24 1 18 0 14 12 5 3
14 6 2 17 1 19 15 4 12 5 8 9
9 22 10 19 11 17 24
17 19 1 12 14 7 21 16 8 10 15 13 2 9 4 0 22 24 6 23 20 18 5 11 3
1 10 15 14 6 9 8 20 23 12 7 0 18 21 22 5 4 3 16 13
24 18 2 19 16 22 1 15 3 21 6 9 8 20 5 11 4 17 7 10 12 13 14 23
15 5 16 2 13 10 8 3 7 20 9 6 21 22 12 4 18 19 24 0 17
24 16 18 11 8 2 10 19 20
11 24 5 17 15 22
7 1 4 18 12 6
14 11 22 4 2 5 23 6 10 0 20 24 15 17 13 16
22 10 2 18 8 24 9 21 13 1 3 23 15 14 16 19 0 4 11 6
14 15 13 4 20 9 2 6 1 23 16 18 7 5 8 11 22 3 17
